DATASET = "thpack4";
INSTANCE = "096";

WIDTH = 233;
HEIGHT = 220;
LENGTH = 587;

NO_OF_SHAPES = 10;
size = [|
  64,42,26 |
  92,58,52 |
  92,85,21 |
  90,49,33 |
  54,48,34 |
  95,62,45 |
  72,49,46 |
  56,42,25 |
  64,34,26 |
  113,90,54 |
|];

verticality = [|
  0,1,1 |
  1,1,1 |
  0,0,1 |
  0,1,1 |
  1,1,1 |
  0,1,1 |
  1,1,1 |
  0,1,1 |
  0,1,1 |
  0,1,1 |
|];

box_count = [
  18,
  13,
  11,
  18,
  10,
  14,
  13,
  19,
  11,
  22,
];
